results/x-10M/X-n134-k13.vrp_seed-3.out
10916	10023
