results/x-10M/X-n134-k13.vrp_seed-3.vrp.sol
Route #1: 127 48 64 117 49 69 1 92 31
Route #2: 76 82 133 12 124 33 86 72 3
Route #3: 40 52 101 131 114 11 122 100
Route #4: 103 10 62 32 54 110 123 56
Route #5: 119 57 104 99 46 21 45 106 85
Route #6: 132 109 17 19 130 80 115 125 128
Route #7: 59 96 18 73 39 2 9 47
Route #8: 108 6 97 5 121 7 68 30 8 44 67 20 126 55 22 27 4 70 107 84 81 15 63 13
Route #9: 129 116 89 113 25 105 41 34 58
Route #10: 83 38 50 35 26 74 87 78
Route #11: 29 61 71 120 111 36 43 79 112
Route #12: 95 60 14 16 51 91 118
Route #13: 24 37 88 102 94 93 42 65 28 75 98 23 77 53 66 90
Cost 10916.000000